N = 20;
lengths = [295, 295, 295, 295, 295, 295, 295, 295, 295, 295, 295, 295, 295, 295, 295, 295, 295, 295, 295, 295];
widths = [295, 295, 295, 295, 295, 295, 295, 295, 295, 295, 295, 295, 295, 295, 295, 295, 295, 295, 295, 295];
heights = [75, 70, 70, 75, 75, 80, 50, 70, 70, 45, 100, 60, 75, 75, 70, 60, 75, 48, 68, 35];
reds = [197, 132, 155, 111, 71, 75, 37, 51, 161, 226, 7, 0, 124, 97, 72, 41, 55, 63, 147, 197];
greens = [215, 248, 244, 71, 48, 158, 169, 181, 104, 133, 47, 252, 166, 113, 229, 163, 154, 170, 227, 162];
blues = [20, 207, 183, 144, 128, 50, 241, 222, 244, 31, 204, 170, 32, 122, 46, 250, 149, 104, 46, 123];
